r_100_25_2
100
  0   0   0   0   0   0  48  60   0   0   0   0   0  37   0  61  20   0   0   0   0  32   0   0   0   0   0   0   0   0   0  45   0   0   0   0  69   0   0   0   0  68   0  10   0  51  35   0   0  92   0   0   0   0   0  63   0  20   0   0   0   0  98   0  34  14   0   0  85   0   0   0  41  30  47  42  74   0   0   0   0   0   0   0   0   0   0  58   0   0   7  87   0   0   0  40   0   0  85   0 
 59  57   0  48   0   0   0   0   0  66  63   0   0   0   0   0   0   0   0   0   0   0   0  99  69   0   0  64   0   0   0   0   0  96   0   0  62   0  17   0   0  52   0   0   0   5   0   0   0  40   0   0   0   0  14   0  33   0   0   0   0   0   0   0   0   0  23   0   0  99   0   0  99  47  51  55   0  43   0   0  57  69   0  36   0   0   0   0  38  58   0   0   0   0   0  92   6   0  71 
  0   0   0   0   0   0   0   0   0   0  42   0   0   0   0   0   0  26  73   0   0   0   0   0   0  69  66   0   0   0   0   0   0   0  69   0   0   0   0   0   0  66   0   0   0   0  41   2   0   0   0  55   0   0   0   0  51   0   0   0  99   0  10   0   0  64   0   0   0  44   0   0   0  67   0  80   0   0  95   0   0  31   0   0   0   0   0   0   0   0  57   0   0   0  25   0   0   0 
  3   0   0   0   2   0  81   0   0  25   0   0  38  72   0   0  32   0   0  41   0   0   0  68  46   0   0   0   0   0   0   0   0   0   0   0   0   0   0   0   0   0  27   0  26  73   0   0   0  58   0   0   0   0   0   0  89   0  36   0   0   0  80   0   0   0   0   0   0   0   0   0   0   0   0   0   0  49   0  74  77   0   0   0   0   0   0   0  94   0   0   0   0   0   0   0   0 
  0   0   0   0   0   0   0   0   0   0   0   0   0   0   0 100   0   0  70   0   0   0  93   0   0   0   0  71   0  67   0   2  39   0  43  71  42  77   0   0  33   2   0  88   0   0   0   0  96   0   0   0   0  44  30  78   0   0   0  68   0   0  36   0   0   0   0   0  48  78   0   0   0   0  82   0   0   0  73   0   0  55   0  37   0   0  42  29   0   0   0   0   0   0  75   0 
  0  89   0  72   0   0  69   0   0  60   0   0   0   0   8   0   0   0   0   0   0   0   0   0  95   0   0   0   7   0   0   0   0   0   0   0   0   0   2   0   0   0   0   0  48   0   0  48  17   0   0   0   0   0   0   0  97   0   0   0   0   0   0   0   0   0   0  28   0   0  76  74   0   0   0   0   0   0   0   0  94   0   0   0   0   0   0  32   0  57   0   0   0   0   0 
  0  13   0   0   0  99   0   0   4   0  77   0   0   0   0   0   0  18   0  31   0   0  78   0   0   0   0  86   0   0   0  92   0   0   0  49  24   0  97   0   3   0   6   0   0   0  94   0  23   0   0   0   0   0   0  68   0   0   0   0   0   0  16  69   0   0  50   0   0   0   0   0  43   0   0   0  24   0   0  75   0   0   6   0   0  50   1   0  97  91   0   0   0   0 
 65   0  64   0   0   0   0   0   0   0   0   0  45   0   8   0   0   0   1   0   0   0  67   7   0   0   0   0   0   0   0  60   0   9  85   0   0   0   0   0   0  15   0   0   0  58   0   3   0   0  80  40   0   0   0   0  35   0  18   0  48   0   0   0   0  43   0   0   0   0   0   0   0   0   0   0   0   0  31  73   0   0   0   0   0   0   0  38  17   0  18   0   0 
  0   0   0   0   0   0   0   0   0   0   0   0  61   0   0 100  78   0  71   0   0   0   0   0   0   0   0  88  21   7   3   0  38   0  65   0   0   0  74  29  30  73   0  97  18   0   0   0   0  56   0   0  13  77  83  87  76   0   0  78  91   0  53   0   0   0   0   0  79   0   7   0   0   0   0  24   0   0   0  16   0   0   0  12   0   0  97   0   0  25   0  34 
  0  29   0   0   0   0   0   0   0  30  78   0   0  97   0   0   0   0   0   0   0   0   0   0   0   0  29  96   0   0   0   0  80   0   0   0  31   0  34   6   9   0  80   0   0   0   0   0   0   0   0   0   0   0   0   0   0   0   0   0   0  71   0   0   0  78   0  12   0   0  22   0   0   0   0   0  59   0   0  82  81   0   0  88   0   0   0  22   0   0   0 
 23   0   0   0   0  88  28   0   0   0   0   0   0   0   0   0   0  85   0  54   0   0   0  75   0  40   0   0  35  11   0  53   0   0  35   0   0  92   0  13   0   0  94  29  65   0   0   0   0   0  58   0   0   0   0  10   0   0   0   0   0   0   0   0   1   0   0   0   0   0   0  61   0   0   0   0   0   0   0   0   0   0   0   0  63  72   0   0  91  73 
  0   0  56   0   0  27   0   0   0   0  72   0   0  24   0  23   0   0  64   0   0   0   0   0  89  44   0   0   0   0   0  60   0  87   0   0   6  81   0   0   0   0  68  33  53   0   0   0   0   7   0   0   0   0   0  66   0   0   0   0   0   0  50  37   1  27   0  82   0   0   0   0   0   0   0   0   0  96  87  78   0   0   0   0  73   0   0  94   0 
  0   0   0  47  28   0   0   0   0  10   0   0   0   0   0   0   0   0   0   0  18  42   0   0   0   0   0   0  65   0   0   0   0  22   0  14   0   0   0  31  77   0   0  52   0   0   0  23   0   0   0   0   0   0   0   0   0   0   0   0   0   0  12   0  47   0   0  70   0   0   0   0   0   0   0   0  44   0   0  46   0   0  98   0   0   0   0  44 
  0   0   0   0   0  79  84   0   0  68   0  37   1  18  66 100   0   0   0   0   0  84   0   0  19   0   0  10   0   0   0   0   0   0   0   0   0   0   0  16   0   0   0   0   0  75   0   0   9   0   0   0  12   0   0   0   0   0   0   0   0   0   0   0   0   0  61   0  51   0   0   0   0   0   0   0   0   0  42   0   0   0   0  49   0   0   0 
  0   0   0   0  64   8   0   0  31   0  74   0   0   0   0   0   0   0   1   0   0   0   0   0   0   0   0   0  78  73   0   0   0   0   0  42   4   0   0   0   0   0   0  31   0   0 100   0   0  58  12   0   0   0   0   0   0  84  91  76   0   0   0  22   0   0   0   0   0  43   0   4   0  80  93   0   0   0   0  55   0   0   0   0   0   0 
  0   0  17   0   0   0   0   0   0   0   0  10  43   0   0   0   0  78   0   0  96   0  19   0   0   0   0  98   0   0   0  42   0   0   0   0   0  66   0   0   0   0   0   0   0   0   0   0  66  43   0   0   0   0  72   0   0   0   0   0  63   0   0   0   0   0   0   0   0  40   0   0   0  19  38  60   0   0   0   0   0  29   0  42   0 
  0   0   0   0   0   0  41  78   0   0  14   0  73   0   0   0   0   0   0   3   0   0   0  83   0   0   0   0  86   0  74   0   0  28  46   0   0   0   0  50   0   0   0   0  22   0   0   0  80  11   0  34   0   0   0   0   0   0  13  81   0  71   0  99  31   0   0   0   0  19   0   0   0   0   0   0  27   0   0   0   0   0   0   0 
  0   0   0   0   0   0   0   0 100   0   0   0   3   0   0   0  77   0  75   0   0   0   0  65   0   0   0   0   0   0   0   0   0  42  53   0   0   0   0   0  83   0   0   0   0   0   0  53   0   0   0   0  86  49   0  74   0   0  45   0   0   0  16  69   0   0  68  97  21   0   0  39  32   0   0   0  92   0  97  33   0  68   0 
  0  72  26  57   0   0  57   0   0   0   5   0  16   0  69 100   0   0  24   0   0   0   0   0   0   1   0   0   0   0   0   0  39  11   0   0   0   0   0  14   0   0   0   0   0   0   0   0   0  60   0   0   0   0  89  37   0   0   0   0   0  82   0   0   0   0  34  51   0  57   0   0   0   0   0  53  38   0   0   0   0   0 
  0   0   0   0   0   0   0   0   0   0   0   0  23  98  55   0   0   0  25   0   0   0  18  34   0  55  85   0   0  75   0   8   0  64   0   0   0   0   0  30   0  93  40  97   0   0   0  41   0  85   0   0  51   0   0  88   0  85   3  93   0  38   0   0   0  83   0   0   0   0   0   0  62   0   0   0   0   0   0   0   0 
  0   0   0   0  46  99  51   0   0   8   0   0   0   0   0   0   0   0   0   0   0  32  42   0   0   0   0   0  21   0   0  41   0   0   0   0   0   0   0   0   0   0   0   0   0   0   0   0   0  43   0  96   0   0   0  96   0   0  73   0   6  86   0   0  49   0  70   0   0   0   0   0   0   0   0   0  16  41   0   0 
  0   0   0   0  63  84   2   0   0   0  77   0   0   0   0   0  67   0   0   0   0   0   0   0   0  87   0   0   0   0   0  43   0   0   0  69   0  77   0  15   0   0   0   0   0   0   0  32   0   0   0  42   0  39  56  15   0   0   0   0   0   0   0  65   0  22   0   0  63  29   0   0   0  75   0   0  97  40   0 
  0  55   0   0   0   0   0   0   0   0   0   0   0  14  52   0   0   0   0   0   0  32   0   0   0   0  14   0  70   0  33   7   0   0  75  54  15   0  12  75  11   0   0   0   0   0   0   0   0   0   0   0   0   0  99   0  94   0   0   0   0  51   0   0  21  83  54   0   0   0   0   1   0   0   0   0  94  71 
 95   0   0   0  16   0   0  36   0   0   0   0  75   0   0  88   0   0   0   0   0  64  47   0   0   0   0  16   0   0  61   0  53  36   0   0   0  38   0   0  75   0   0   0   0   0   0   0   0   0   0   0   0  98   0   0   0   0   0   0   0 100  87   0   0   0   0  72   0   0   0  43   0   0  54   0   0 
  0   0   0   0   0  13   0   0  43   0   0   5   0   0   0  41   0  28   0   0   0   0   0   0   0   6   0   0  91   0   0   0   0   0   0  25  51   0   0   0   0   0   0   0   1   0   0  66   0   0  12   0   0   0   0   0   0   0  98   0   0   0   0  79   0   0  56   0   0   0   0   0   0  51   0  61 
 59   0   4   0   0   9   0   0  99   0  95   0  47   0   0   0  12   0   0   0  14   0   0   0   0   0  12   0   0   0   0   0   0   0   0   3   0   0   0  43   0   0   0   0  16   0  83   0   0   0   0   0   0   0   0   0   0  57   0  32   0   0  41   0   0   0   0   0   0   0  39   0  88   0  86 
  0   2   0   0   0   0   0   0  43  25   0  88  42  57   0   0  82   0   0  21   0   0  30   0   0  92   0   0   0  91   0   0   0   0  53   0  17   0   0   0  17   0   0   0   0   0   0   0  92   0   0   0   0   0  45   0   0   0   0   0  61   0   0  73   5   0   0   0  53   0   0   0   0   0 
  0   0  21  74   0   0   0  39   0   0   0  97   0   0   0   0   0   0   0   0  58   0   0   0   0   0   0   0   0   0  79   0  48   0   0   0  84   0   0   0   0   0  72   0   0   0   0  25   0  58  16  28  20  18  32   0  82   0   0  10  96   0   0   0   0  36   0  80   0  69   0   0   0 
  0   0  78   0  34  87  84   0   0   0   0   0   0   0  15   0   0   0   0   0   0   0   0   0   0  67   0   0   0   0   0   0  63   0   0   0   0   0   0   0  92   0   0   0   0  48   0  12   0   0   0   0   0   0   0   0   0   0   0   0   0   0   0   0   0   0   0   0   0  69   0   0 
 27   0   0  14  32   0   0   0  32   0   0  58   0   0   0   0   0  33   0  66   0   0   0  50  43   0  26   0   0   0   0   0   0   0   0   0   0   0   0   0   0   0   0  39  17  90   0   0   0   7   0   0   0   0   9   0   0   0   0   0   0   0   3   0   0  95   0   0   0   0   0 
  0   0   0   0   0   0   0  41   0   0   0   0  90   0  47   0   0   0   0  12   0   0   0  46  95   0   0  43   0   0   0  92   0   0   0   0   2  35   0   0   0  93   0  66   0   0   0   0   0   0   3   0   0  80   8   0  48  95  32   0   0   0   0  25   0   0   0   0  47   0 
  0   0   0   0  27   0   0   0  83   0   0  75   0   0   0   0   0  33   0   0   0   0   0   0   0   0   0   0   0   0   0   1   0   0   5   0   0   0  36   0   0   0   0   0   0  15   0   0  75   0  16   0   0   0   0   0  29   0   0   0  22  55   0   0   0   0   0   0   0 
  0   0   0  99   0   0   0  52  63   0   0   0   8   0   0   0   0   0  39   0   0   0   0   0   0   0   0   0   0   8   0  94   0   0   0   0   0   0   0  44   0   0  37  80  89   0   0   0   0   0   0   0   0   0  96   0   0  53   0   0   0   0   2  25   0  10   0   0 
  0   0   0   0   0   0  93   0   0   0   0   0   0   0   5   0  38   0   0  38   0   0   0   0  76   0   0   0   0   0   0   0   0   0  62   9   0   0   0   0   0   0   0  56   0   0  99   0   0   0   0   0   9  12   0   0   0   0  26   0   0   0   0   0  61   0  18 
 62   0   0  90   0   0   0   0   0   0   0  33   0   0   0   0   0   0   0   0   0  87   0   0   0  57   0   0   0   0   0   0  53   0   0   0   0   0   0   0   0   0   0   0   0  65   0  58   0  17   0   0   0   0   0   0   0   0   0   0   0   0   0  11  35  99 
  0   0   0   0   0   0   0   0   0   0   0   0   0  24   0   2   0   0  21  84   0   0   0   0   0   0   0   0   0   0   0   2   0   0   0   0   0   0   0   0  37  56   0  33   0   0   0   0   0   0  28   0   0   0   0   0   0   0   0   0  86   0   0   0  37 
  0   0  24   0  51  95   0   0   0   0  36   0   0   0  22  18   0   0   4   0   0   0   0   0  26  46   0  76   0  78  35   0   0  54   0  92   0   0   0   0   0   0   0   0   0   0   0   0  53   0   0   0   0   0   0   0   0   0   0   0   0   0  80   0 
  0   0   0   0   0   0  80   0  61  60   0   0  22   0   0  30   0   0   0   0   0   0   0  43   0  46   0  90   0   0  60   0   0   0   0  66   0   0   0   0   0   3   0   0   0  61  60   0   0   0   0   0   0 100   0   0   0   0   0  82   0  65   0 
  0   0   0   0   0   0  89   0   0   0   0   0   0   0   0   0  98  71   0   0   0  31   0   0  75   0   0   0   0   0   0   0   0   0  65   0   0   0  39   0  74   0   0   0   0   0   0   0   0  72   0   0   0  32   0   0   0   0   0  54   0   0 
  0   0  37   0  19   0  91   0   0   0  76   0   0   0  76   0   0   0   0  43   0  76   0   0   0   0   0   0  51   0  26   0  55  39   0   0   0   0   0   0   0   0   0   0  64  60  95   2   0   0   0   0   0   0   0  87  22   0   0  95  20 
  0   0  91   0  11   0   0   0   0   0   0   0   0   0   0   0   0   0  60   0   0  26  18   0   0   0   0  77   0   0   0   0   0  48   0   0   0   0   0  88   0   0   0   0   0   0   0   0   0   0   0   0   0   0  67   0  31   0  44  46 
  0  96  32   0   0  97   0   0   0  35   0   0   0   0   0   0   0   0   0   0   0  98   0   0   0   0   0  48  64   0   0   0   0  93   0   0   0   0   0   0   0   0   0   0   0   0  23   0   0   0   0  82  72   0   0   0   0   0  85 
  0   0   0  28  32   0  18  85   2   0   0  13   0   0  98   0   0   0   0   0   0   0   0   0   0  46   0  47  14  31   0   0   0   0   0  59   0   0  56   0   0   0  15   0  98   0   0   0   0   0   0   0   0   0   0   0   0  77 
  0   0   0   0   0   0  18   1   0  26  83   0   0   0   0   0   0   0   0   0  74   0  38   0  68   0   0   0   0   0   0   0  59  51   0   0  87   0   0   0   2   0   0   0   0  56   0   0   0   0   0   0  51   0   0   0   0 
  0   0   0   0   0   0   9  50   0  76   0  36  90   0   0  66   0  32  22   0   0  57  72   0   0   0   0  99   0  14   0  43   0   0   0   0   0   0   0   7   0  91   0   0   0   0   0   0  43  46   0  52   0   0   0  20 
 15   0   0   0   0   0   0   0  75  10   0   0   0   0   0   0  82   0   0   0   0   0   0   0   0   0   0   0  68   0   0   0   0   0   0   0  81  28  32   0   0   0   0   0   0  37  64  60   0   0   0   0  95   0   0 
  0   0  55  26  44   0   0   0   0   0   0   0   0   0   0   0  93  88   0   0   0   0   0  54   5   0   0   0   0   0   0  81   0   0   0  65   0   0   0   0   0   0  48  30   0  38   0  91   0   0   0   0   0   0 
  0   0  29   0  90   0   0   0  13   0   0   0   4   0   0   0   0   0  25   0   0   0  39   0  46   0  58  17  61   0   0   0   0   0   0   0   0  54   0  96  51   0   0   0   0   0   0   0  87   0   0  78   0 
  0  21   0   0   2   0   0   0   0   0   0   0   0   0   0   0  39   0   0   0   0   0  55   0   0   0   0  28   0   0   0  22  90  46   0   0   0   0  69  28  36   0  76  79  18  91   0   0   0  13   0  17 
 59   0  71  63  26   0   0  53   0  90   0   0   0  81  17  36   0   0   0   0   0  82  40   0   0   0   0   0   0   0  16   0  57   0   0   0   0   0   0   0   0  42   0  29   0   0   0   0   0   0   0 
  0   0  97   0   0   0   0   0   0   0   0   0  75  48   0   0   0   0   0   0   0   0   8   0   0   0   0   0   0   0   0   0   0   0  37  14   8   0   0   0  55   0   0  24   0   0   0   0  59   0 
  0   0  40   0   0   0   0   0  32   0   0   0   0   0   0   0   0   0   0   0   0   0  14  97   0  47   0   0   0   0   0   0   0   0   0  59   0   0  56   0   0  77   0   0   0   0   0   0   0 
 52   0  14   0   0   0   0   0  35   0  79  11   0   0   0   0  97  40   0   0   0   0   0   0   0   0   0   0   0   0   0  55  81   0   0  76   0   0   0  91   0   0  28   0   0   0   0   0 
 28   0   0   0  60  78  41   0   0  41   0   0  88   0  24  20   0   0   0   0  69   0   0   0   0   0   0   0   0   0   0  11   0   0   0   0   0   0   0   0   0   0   0   0   0   0   0 
  0  72  66   0  33   0  36  60   0  91   0   0  74   0  30  56   0   0   0   0   0   0   0   0  18   0  45   0  94   0   0   0   0  19   0   0   0   0   0  38  74  51   0   0   0   0 
  0   0   0   0  49   0   0  99   0   0   0  83   0   0   0   0   0   0   0   0  89  89   0   0  53  94   0   0   0   0   0   0   0  48  59   0   0   0  29   0   0   0  12   0   0 
  0   0   0   0   0   0   0   0   0  88   0   0   0   9   0   0   0   0   0   0   0  56   0   0  14   0   0   0   0  43   1   0  75  76   0  31   0   0   4   0  50  85   0   0 
  0   0  33   0   0  56   0   0   0   0   0  33   0   0   0  11   0   0   0   0   0   0   0   0  70   0   0   0   0  50   0  93   0   0   5   0   0   0   0   0   0   1   9 
 93   0   0   0   0   0   0  75  50   0   0   0  89   0  77   0  84  21   0  28   0  52   0   0   0   0  94   0  37   0   0   0   0   0  25   0   0   0   0   0   0   0 
  0   0   0   0  36  74   0   0   0   0   9   0   0   0   0  36   0   0   0   0   0   0   0   0   0   0   0   0   0   0   0   0   0  31  91  48   0  45   0   0   0 
  0   0   0  39  90   0   0   0   0   0   0  25   0   0   0   0  17   5  67   0   0  79   0   0   0   0   0   0   0   0  85  94   0   0   0   0  76  91   0   0 
  0   0  38   0  72  33   0   0  30   0   0   0  70   0  77   0  55   0   0  53   0  15   0   0   0   0  70  41   0  57   0   0   0   0   0   0   0   0  85 
  0  85   0  40   0  13   0   0  65   0   0   0   0   0   0   0   0   0   0   0  65  71  55   0   0   0   0  11   0   0  33  23   0  40   0  93   0   0 
  0   0   0   0   0   0   0   0   0   0   0   0   0   0   0   0   0   0   0   0  87  82   0   0   0   0  98   0   0   0   0   0   0   0   0  60   0 
  0   0  39   0  77   0   0   0  77   0   0   0   0   0   0   0   0   0   0  14  50   0   0  43   0   0  68   0   0   0  93  28   0   0   0   0 
  0  21  39   0   0  56   0   0   0   0   0   0   0   0   0   0  33   0   0   0   0   0   0  93  47   0   0   0  18   0   0   0   0   0   6 
  0   0   0   3   0  64  46   0  48  27  20   0   0   0   0  63   0   0  40   0   0   0  40  17   0   0   0   0  92   0 100   0   0   0 
  0   0   0   0   0  61   0  14   0  44  92  86   0   0   0   0   0   0  68   0   0   0  92   0   0   0   0   0   0   0   0   0   0 
  0   0   0   0  68   0   0   0   0  26   0   0  40   0   0   0  63   0   0   0   0   0   0   0   0  74   0   0   0   0   0   0 
 32   0   0   0   0   0   0   0  34   0   0   0   0  96   0   0   0   0   0  25   0  72   0  95   0   0   0   0   5   0   0 
 12   0   0   0   0   0   0   0  86   0   0   0   0   0   0   0  80   0   0  24   0   0   0   0   0  94   0   0   0   0 
  0   0  48   0   0  97   0   0   0   0   0   0   0   0   0   0   0   0   0  92   0   0   0   0  26   0   0   0   0 
  0   0  31   0  30  97   0   0   0   0  91   0   0   0   0   0   0  73   0  22   0  67   0   0   0  91   0   0 
  0   0   0   0  42   0   0   0  58   0   0   0   0   0   0   0   0   0   0   0  94  47   0   0   0   0   0 
  0   0  28   1   0   0   0   0   0   0   0   0  21   0  70  70  99   0  36  47   0   0   0   0   0   0 
 29  72  24   0   0   0   7   0   0   0   0   0   0   0   0  33   0   0   0   0   0   0  49   0   0 
 64   0  45   0  27   0   0  36   0  99   0   0   6  36  27   0   0   0   0  89  75   0   0   9 
  0   0   0   0  76   0   0  80  24   0  19   0   0   0   0   0   0   0   0   0  20   0   0 
  0   0   0   0   0   0   0   0   0   0  14   0   0   0   0  88   0   0   0   0  92   0 
  0  95   0   0   0 100   0   0  87   0   0  70   0   0  70   0   0  33   0  54   0 
  2   6  99   0   0   0   0   0   0  78   0  47   0   0   0   0  73  27   0   0 
  0   0   0   0   0  79  65   0  37   0   0   0   0   0   0   0  22   0   0 
 69   0   0   0   0   0   0  15   0   0   0   0   0   0   0   0   0  78 
  0   0   2   0   0   0   0   0   0  50   0  95   0  93   0   0   7 
  0   0   0   0   0   0   0   0  96   0  96   0   0  28   0   0 
  0   0   0   0   0   0   0  38   0   0   0   0   0   0   0 
  0   0   0   0   0   0   0   0   0   0   0  77  59  28 
  0   0  63  38   0   0   0   0   0   0   0   0   0 
 99   0   0   0   0   9   0  80  32  73   0   0 
  0   2  80   0   0   0   0   0   0   0   0 
 36  22  41   0  77   0   0   0  54   0 
  0   0   0  14  23  20   0   0   0 
  0   0   0   0  51  80   0  98 
  0   0  40   0   0   0   0 
 60  68   0   0   0   0 
  0   0   0   0   0 
  0   0  50   0 
  0   0  16 
 90   0 
  0 

0
2366
 50  36  47  25  16  11  21  45  16  24  50  35  29   8  48  30  12  41  14  14   4  45  25  18  50  37  30   1  32  29  12  50  19  25  44  45  20   1  48  38  33  17  41  39  28  19  46  45  39  31  46  43  41  39  44  11  42  17   6  29  34  49  31  25   7  24  22  12   5  17  41   2  27  26  29  29  32  23  18  45   3  26  15   7   4  37  43  15  28  47   6  37  24  36  29  11  34  41   3  23 

Comments

Density             : 25.00 %

